NAME : random115.810.tour
COMMENT : Length = 810
COMMENT : Found by LKH [Keld Helsgaun] Sat Nov 23 21:50:08 2024
TYPE : TOUR
DIMENSION : 115
TOUR_SECTION
1
7
59
32
43
94
29
70
101
83
18
34
78
24
74
100
56
114
11
66
111
10
46
77
71
39
40
38
105
88
106
12
91
14
104
27
35
5
99
45
93
22
75
53
4
86
55
112
20
33
6
68
44
64
54
97
60
57
31
15
89
28
115
58
92
85
98
80
8
95
67
48
23
51
103
3
50
49
82
79
96
21
107
84
62
16
30
90
65
9
72
87
61
41
25
47
69
52
26
19
42
109
73
81
17
13
102
36
108
2
76
110
63
37
113
-1
EOF
